(declare-rel main_1 (Int Int Int ))
(declare-rel err ())
(declare-var main@%_8_0 Bool )
(declare-var main@%_.0.i_0 Int )
(declare-var main@%.off_0 Int )
(declare-var main@%switch_0 Bool )
(declare-var main@%_br_0 Bool )
(declare-var main@%.0_1 Int )
(declare-var main@%a7.0_2 Int )
(declare-var main@%output.0_2 Int )
(declare-var main@%a7.0_0 Int )
(declare-var main@%output.0_0 Int )
(declare-var main@_call_0 Bool )
(declare-var main@_a7.0_0 Bool )
(declare-var main@%a7.0_1 Int )
(declare-var main@%output.0_1 Int )
(declare-var main@_4_0 Bool )
(declare-var main@%_.off_0 Int )
(declare-var main@_call1_0 Bool )
(declare-var main@%_7_0 Int )
(declare-var main@%.0.i_0 Int )
(declare-var main@_a7.0_1 Bool )
(declare-var main@_.0_0 Bool )
(declare-var |tuple(main@_4_0, main@_.0_0)| Bool )
(declare-var |tuple(main@_a7.0_0, main@_.0_0)| Bool )
(declare-var main@%.0_0 Int )
(declare-var main@%.0_2 Int )
(rule (=> (and true
         (=> main@_a7.0_0 (and main@_a7.0_0 main@_call_0))
         main@_a7.0_0
         (=> (and main@_a7.0_0 main@_call_0) (= main@%a7.0_1 0))
         (=> (and main@_a7.0_0 main@_call_0) (= main@%output.0_1 (- 1)))
         (=> (and main@_a7.0_0 main@_call_0) (= main@%a7.0_2 main@%a7.0_1))
         (=> (and main@_a7.0_0 main@_call_0)
             (= main@%output.0_2 main@%output.0_1)))
    (main_1 1 main@%a7.0_2 main@%output.0_2)))
(rule (let ((a!1 (=> main@_4_0
               (= main@%switch_0
                  (ite (>= main@%.off_0 0) (< main@%.off_0 6) false)))))
(let ((a!2 (and (main_1 1 main@%a7.0_0 main@%output.0_0)
                true
                (= main@%_br_0 (= main@%output.0_0 0))
                (=> main@_4_0 (and main@_4_0 main@_a7.0_0))
                (=> (and main@_4_0 main@_a7.0_0) (not main@%_br_0))
                (=> main@_4_0 (= main@%.off_0 (+ main@%_.off_0 (- 1))))
                a!1
                (=> main@_call1_0 (and main@_call1_0 main@_4_0))
                (=> (and main@_call1_0 main@_4_0) main@%switch_0)
                (=> main@_call1_0 (= main@%_7_0 (+ main@%a7.0_0 1)))
                (=> main@_call1_0 (= main@%_8_0 (= main@%_7_0 10)))
                (=> main@_call1_0 (= main@%_.0.i_0 (+ main@%_.off_0 (- 1))))
                (=> main@_call1_0
                    (= main@%.0.i_0 (ite main@%_8_0 0 main@%_.0.i_0)))
                (=> main@_a7.0_1 (and main@_a7.0_1 main@_call1_0))
                main@_a7.0_1
                (=> (and main@_a7.0_1 main@_call1_0)
                    (= main@%a7.0_1 main@%_7_0))
                (=> (and main@_a7.0_1 main@_call1_0)
                    (= main@%output.0_1 main@%.0.i_0))
                (=> (and main@_a7.0_1 main@_call1_0)
                    (= main@%a7.0_2 main@%a7.0_1))
                (=> (and main@_a7.0_1 main@_call1_0)
                    (= main@%output.0_2 main@%output.0_1)))))
  (=> a!2 (main_1 1 main@%a7.0_2 main@%output.0_2)))))


